100
30 4
37 0
11 1
18 3
4 1
32 4
13 3
41 4
27 2
36 1
1 3
15 3
9 2
25 3
25 4
23 0
43 4
29 4
27 4
19 3
6 0
25 0
14 3
10 4
1 2
41 3
34 2
16 3
27 0
36 2
9 0
1 0
18 4
24 2
7 1
33 4
36 4
24 3
18 1
0 4
6 2
12 1
39 0
38 4
29 0
21 0
37 4
9 4
13 4
29 1
25 1
0 0
38 3
42 4
16 4
7 3
5 4
2 0
33 2
23 1
28 3
20 3
12 4
21 3
6 1
16 0
21 4
40 0
3 3
2 2
29 3
4 4
11 0
31 0
24 0
43 0
23 4
3 0
38 1
43 3
28 1
21 1
20 0
42 1
14 2
19 1
38 2
40 4
42 2
10 3
24 4
5 0
11 4
32 0
6 3
12 3
3 2
19 0
22 3
15 1

